1363
1500000
991127
991127
991127
991127
991127
991127
991127
991127
991127
991127
990931
990931
990931
990931
990931
990931
990931
990931
990931
990931
990931
990931
990931
990931
990931
990931
985236
985236
985236
985236
985236
985236
985236
985236
985236
985236
985236
985236
984010
984010
984010
984010
984010
984010
984010
984010
984010
984010
984010
984010
984010
984010
984010
984010
984010
984010
984010
982380
982380
982380
982380
982380
982380
982380
982380
982380
982380
982380
974908
974908
974908
974908
974908
974908
974908
974908
974908
974908
974908
974908
974908
974908
974908
972825
972825
972825
972825
972825
972825
972825
972825
972825
972825
972825
972825
972825
972825
972825
972825
972825
972825
966094
966094
966094
966094
966094
966094
966094
966094
966094
966094
966094
966094
966094
958568
958568
958568
958568
953588
953588
953588
953588
953588
953588
953588
953588
952187
952187
952074
952074
952074
952074
952074
952074
952074
952074
952074
952074
952074
949254
949254
949254
949254
949254
949254
949254
949254
949254
949254
949254
949254
949254
943048
943048
943048
943048
943048
943048
943048
943048
943048
943048
943048
943048
943048
943048
943048
943048
943048
928931
928931
928931
928931
928931
928931
927963
927963
927963
927963
927963
927963
927963
927963
927963
927963
927963
927963
927963
927963
927963
927963
927963
927963
927963
927963
921135
921135
921135
921135
921135
921135
921135
921135
921135
921135
916356
916356
916356
916356
916356
916356
916356
916356
916356
916356
916356
916356
916356
916356
912964
912964
912964
912964
912964
912964
912964
912964
912964
912964
912964
912964
912964
912964
912964
912348
912348
912348
912348
912348
912348
912348
912348
912348
912348
912348
912348
911346
911346
911346
911346
911346
911346
911346
911346
899043
899043
899043
899043
899043
899043
899043
899043
899043
899043
899043
899043
899043
899043
899043
899043
898549
885762
885762
885762
885762
885762
885762
885762
885762
885762
885762
885762
883245
883245
883245
883245
883245
878416
878416
878416
878416
878416
878416
878416
878416
878416
878416
878416
872746
872746
872746
872746
872746
872746
872746
872746
872746
872746
872746
872746
872746
872746
872746
872746
872746
872746
843340
843340
843340
843340
843340
843340
843340
843340
843340
843340
843340
843340
843340
828082
828082
821617
821617
821617
821617
821617
816654
816654
816654
816654
816654
816654
816654
816654
816654
816654
816654
816654
816654
816654
816654
816654
816654
816654
816654
816654
816275
816275
816275
816275
816275
816275
816275
816275
816275
816275
816275
813036
813036
813036
813036
813036
813036
813036
813036
813036
811714
811714
811714
811714
811714
811714
811714
811714
811714
811714
811714
811714
811714
811714
811714
811714
811714
811714
800910
800910
800910
800910
800910
792430
792430
792430
792430
792430
792430
792430
792430
792430
792430
792430
792430
792430
789673
789673
789673
789673
789673
789673
789673
789673
789673
789673
789673
789673
789673
789673
789673
789673
789673
789673
789208
789208
789208
789208
789208
789208
789208
789208
787603
787603
787603
787603
787603
787603
787603
787603
787603
787603
784444
784444
784444
784444
784444
784444
784444
784444
784444
784444
784444
776968
776968
776968
776968
776968
776968
776968
776968
776968
776968
776968
776968
776968
776968
776968
770765
767222
767222
767222
767222
767222
767222
767222
767222
767222
767222
767222
767222
767222
767222
767222
767222
767222
767222
764642
764642
764642
764642
764642
764642
764642
764642
751523
751523
751523
751523
751523
751523
751523
751523
751523
751523
751369
751369
751369
751369
751369
751369
751369
751369
751369
751369
751369
751369
751369
751369
751369
751369
751369
751369
737429
737429
737429
737429
737429
737429
737429
737429
737429
737429
737429
737429
737429
737429
737429
737429
737429
737429
725873
725873
725873
725873
725873
725873
725873
725873
725873
725873
725873
721706
721706
721706
721706
721706
721706
721706
721706
721706
721706
721706
721706
718032
718032
718032
718032
718032
718032
718032
718032
717310
717310
717310
717310
717310
717310
717310
717310
717310
717310
717310
717310
717310
714462
714462
714462
713102
713102
713102
713102
713102
713102
713102
713102
713102
713102
713102
713102
713102
713102
713102
713102
713102
713102
710011
710011
710011
710011
710011
710011
710011
710011
710011
701959
701959
701959
701959
701959
701959
701959
701959
701959
701959
696351
696351
696351
696351
696351
696351
696351
696351
696351
696351
696351
696351
696351
696351
696351
692062
692062
692062
676263
676263
676263
676263
676263
676263
676263
676263
676263
676263
676263
676263
676263
676263
676263
676263
669273
669273
669273
669273
669273
669273
669273
669273
669273
669273
669273
669273
669273
669273
669273
669273
669273
664525
664525
664525
664525
664525
664525
664525
664525
664525
664525
664525
664525
664525
664525
664525
664525
664525
664525
664525
664525
629254
629254
629254
629254
629254
629254
629254
629254
629254
629254
627525
627525
627525
627525
627525
627525
627525
627525
627525
627525
627525
627525
627525
627525
625951
625951
625951
625951
625951
625951
625951
625951
609178
609178
609178
609178
609178
606439
606439
606439
606439
606439
606439
606439
606439
606439
606439
606439
606439
606242
606242
606242
606242
606242
606242
591007
591007
584324
584324
582063
582063
582063
582063
581322
581322
581322
576574
576574
576574
576574
576574
576574
576574
576574
576574
576574
576539
576539
576539
576539
576539
576539
576539
576539
576539
576539
561839
561839
561839
561839
561839
561839
561839
561839
561839
561839
561839
561839
561839
561839
561839
561839
561839
554294
554294
554294
554294
554294
554294
554294
554294
554294
554294
554294
554294
550412
550412
550412
550412
550412
550412
550412
550412
550412
550412
550412
550412
550412
550412
550412
550412
550412
550412
550412
550412
548337
548337
548337
544146
544146
544146
544146
544146
544146
544146
544146
544146
544146
544146
544146
544146
544146
544146
544146
544146
542820
542820
542820
525286
525286
525286
525286
525286
525286
525286
525286
525286
525286
525286
525286
525286
525286
503872
503872
495910
495910
495910
495910
495910
495910
495910
495910
495910
495910
495910
495910
495910
495910
495910
487621
487621
487621
486568
486568
486568
486568
486568
486568
486568
486568
486568
483215
483215
483215
483215
483215
483215
483215
483215
483215
483215
483215
483215
483215
483215
483215
483215
483215
483215
483215
478680
478680
478680
478680
478680
478680
478680
478680
478680
478680
478680
478680
478680
478044
478044
478044
478044
478044
478044
478044
478044
478044
478044
467728
467728
467728
467728
467728
467728
467728
467728
467728
467728
467728
467562
467562
467562
442994
442994
442994
442994
442994
442994
442994
442994
442994
442994
442994
439419
439419
439419
439419
439419
439419
439419
439419
439419
439419
416591
416591
416591
416591
416591
416591
400520
400520
400520
390553
390553
390553
390553
390553
390553
390553
390553
390553
390553
390553
390553
390553
390553
390553
390553
390553
390553
390553
390553
375114
375114
375114
375114
375114
375114
375114
375114
375114
375114
375114
375114
375114
375114
375114
375114
375114
374490
374490
374490
374490
374490
374490
374490
374490
374490
374490
374490
374490
374490
374490
374490
374490
374490
374490
374490
374490
365925
349545
349545
349545
348459
348459
348459
348459
348459
348459
348459
348459
348459
348459
348459
348459
348459
348459
348459
348459
347938
340436
340436
340436
340436
340436
340436
340436
340436
340436
340436
340436
340436
339072
339072
339072
331508
331508
331508
331508
331508
331508
330118
330118
330118
330118
330118
330118
330118
330118
330118
330118
330118
330118
330118
330118
330118
330118
330118
330118
330118
330118
323541
323541
323541
323541
323541
323541
323541
315705
315705
315705
315705
315705
315705
315705
315705
315705
315705
315705
315705
315705
315705
315705
315705
315705
315705
315705
315705
312707
311425
311425
311425
311425
311425
311425
311425
311425
311425
311425
311425
311425
311425
311425
311425
310289
310289
310289
310289
310289
310289
310289
310289
310289
310289
310289
310289
310289
310289
310289
310289
310289
310289
303443
303443
303443
303443
303443
303443
302441
302441
302441
302441
302441
302441
302441
302441
302441
298666
298666
298666
298666
298666
298666
298666
295577
295577
295577
295577
295577
295577
295577
295577
295577
295577
295577
295577
295577
295577
295577
295577
262268
262268
261143
261143
261143
261143
261143
261143
261143
261143
261143
261143
261143
261143
261143
257128
257128
257128
257128
257128
257128
257128
257128
257128
257128
257128
257128
257128
257128
257128
257128
253506
253506
253506
253506
253506
253506
253506
253506
253506
253506
253506
253506
253506
249500
249500
249500
249500
246853
246853
246853
246853
246853
246853
246853
246853
246853
246853
246853
246853
246853
246853
246853
246853
246853
246853
245218
245218
245218
245218
245218
245218
245218
245218
245218
245218
245218
232437
212369
212369
212369
212369
212369
212369
212369
212369
212369
212369
212369
212369
212369
212369
212369
212369
212369
212369
209950
209950
209950
209950
209950
209950
209950
209950
209950
209950
209950
209950
209950
209950
209950
209950
209950
209950
209950
209950
208752
208752
208752
208752
208752
208752
208752
208752
208752
208752
208752
208752
208752
208752
208752
208752
208752
208752
208752
208752
208488
208488
208488
208488
208488
208488
208488
208488
208488
208488
208488
208488
208488
208488
208488
201522
201522
201522
201522
201522
